solution status: optimal solution found
objective value:                     206822.620183724
d11(0,0)                                            1 	(obj:0)
d11(1,1)                                            1 	(obj:0)
d11(1,2)                                            1 	(obj:0)
d11(2,3)                                            1 	(obj:0)
d11(2,4)                                            1 	(obj:0)
d11(2,5)                                            1 	(obj:0)
d11(2,6)                                            1 	(obj:0)
d11(3,7)                                            1 	(obj:0)
d11(3,8)                                            1 	(obj:0)
d11(3,9)                                            1 	(obj:0)
d11(3,10)                                           1 	(obj:0)
d11(3,11)                                           1 	(obj:0)
d11(3,12)                                           1 	(obj:0)
d11(3,13)                                           1 	(obj:0)
d11(3,14)                                           1 	(obj:0)
d11(4,15)                                           1 	(obj:0)
d11(4,16)                                           1 	(obj:0)
d11(4,17)                                           1 	(obj:0)
d11(4,18)                                           1 	(obj:0)
d11(4,19)                                           1 	(obj:0)
d11(4,21)                                           1 	(obj:0)
d11(4,23)                                           1 	(obj:0)
d11(4,24)                                           1 	(obj:0)
d11(4,25)                                           1 	(obj:0)
d11(4,27)                                           1 	(obj:0)
d11(4,29)                                           1 	(obj:0)
d11(4,30)                                           1 	(obj:0)
d21(3,7)                                            1 	(obj:0)
d21(4,15)                                           1 	(obj:0)
d21(4,16)                                           1 	(obj:0)
d21(4,17)                                           1 	(obj:0)
d21(4,19)                                           1 	(obj:0)
d21(4,20)                                           1 	(obj:0)
d21(4,21)                                           1 	(obj:0)
d21(4,23)                                           1 	(obj:0)
STE(1,1)                             12831.7501011112 	(obj:0)
STE(0,0)                                        15750 	(obj:0)
STE(1,2)                                        14490 	(obj:0)
STE(2,3)                              5669.9999999942 	(obj:0)
STE(2,4)                             7328.24989888302 	(obj:0)
STE(2,5)                             7328.24989888302 	(obj:0)
STE(2,6)                             8986.49979777184 	(obj:0)
STE(3,7)                             2751.75010110539 	(obj:0)
STE(3,8)                              4409.9999999942 	(obj:0)
STE(3,9)                             4409.99999999421 	(obj:0)
STE(3,10)                            6068.24989888302 	(obj:0)
STE(3,11)                            4409.99999999421 	(obj:0)
STE(3,12)                            6068.24989888302 	(obj:0)
STE(3,13)                            6068.24989888302 	(obj:0)
STE(3,14)                            7726.49979777184 	(obj:0)
STE(4,15)                           -166.499797783459 	(obj:0)
STE(4,16)                            1491.75010110536 	(obj:0)
STE(4,17)                            1491.75010110536 	(obj:0)
STE(4,18)                             3149.9999999942 	(obj:0)
STE(4,19)                            1491.75010110536 	(obj:0)
STE(4,20)                            3149.99999999421 	(obj:0)
STE(4,21)                            3149.99999999418 	(obj:0)
STE(4,22)                            4808.24989888302 	(obj:0)
STE(4,23)                            1491.75010110536 	(obj:0)
STE(4,24)                            3149.99999999418 	(obj:0)
STE(4,25)                            3149.99999999418 	(obj:0)
STE(4,26)                            4808.24989888302 	(obj:0)
STE(4,27)                            3149.99999999418 	(obj:0)
STE(4,28)                            4808.24989888302 	(obj:0)
STE(4,29)                              4808.249898883 	(obj:0)
STE(4,30)                            6466.49979777184 	(obj:0)
y1(3,11)                             1492.42490899994 	(obj:0)
y1(3,13)                             1492.42490899994 	(obj:0)
y1(4,15)                             1492.42490899996 	(obj:0)
y1(4,17)                             1492.42490899996 	(obj:0)
y1(4,19)                             1492.42490899996 	(obj:0)
y1(4,21)                             1492.42490899996 	(obj:0)
y1(4,23)                             1492.42490899996 	(obj:0)
y1(4,25)                             1492.42490899996 	(obj:0)
y1(4,27)                             1492.42490899996 	(obj:0)
y1(4,29)                             1492.42490899996 	(obj:0)
AVE(1)                               3265.91696791192 	(obj:0)
AVE(2)                               3332.74178563731 	(obj:0)
AVE(3)                               3444.11697932125 	(obj:0)
AVE(4)                               3399.56511093778 	(obj:0)
WG(1)                                3265.91696791168 	(obj:10)
WG(2)                                3332.74178563731 	(obj:10)
WG(3)                                3444.11697932125 	(obj:10)
WG(4)                                3399.56511093778 	(obj:10)
BG(1)                                930.375531067886 	(obj:10)
BG(2)                                4760.64273579669 	(obj:10)
BG(3)                                752.175519658316 	(obj:10)
BG(4)                                796.727388041812 	(obj:10)
y1(1,1)                              1492.42490899994 	(obj:0)
y1(2,3)                              5311.57509100528 	(obj:0)
y1(2,4)                              3819.15018200534 	(obj:0)
y1(2,5)                              5311.57509100528 	(obj:0)
y1(2,6)                              3819.15018200534 	(obj:0)
y1(3,7)                              1492.42490899994 	(obj:0)
y1(3,9)                              1492.42490899994 	(obj:0)
